170 127 172 184 26 104 98 25 82 28 131 154 117 8 43 3 74 93 146 115 187 66 129 150 90 149 169 174 132 121 46 52 138 72 71 27 101 191 85 29 37 14 159 141 20 44 110 162 122 106 108 47 109 64 61 24 12 178 76 79 124 145 11 16 68 89 114 160 10 41 22 195 62 87 153 42 97 56 75 7 179 102 186 73 55 63 185 6 32 84 95 5 133 192 18 173 92 2 30 120 99 4 190 13 100 60 168 161 193 143 96 175 111 140 94 33 148 152 0 1 38 157 54 36 23 177 136 40 147 67 21 171 158 167 9 194 88 39 19 45 123 137 156 35 118 81 188 189 198 77 17 125 83 57 59 130 51 58 164 86 142 103 116 128 113 199 139 182 78 119 165 196 144 183 50 34 105 166 48 181 135 107 31 176 70 112 65 197 163 151 134 15 126 69 53 91 155 49 180 80 

